51 6
23 25 24 23 24 20
1 0 0 0 0 0 0 3 2 3 4
10 3 10 8 9 4 4 4 5 6 7 8
9 10 7 8 2 3 2 4 51 6 7 8
9 7 5 5 9 4 1 4 5 6 7 8
8 9 4 1 10 2 10 3 9 10 11
4 7 10 4 5 4 6 4 9 10 11 12
8 8 8 3 6 8 10 4 9 10 11 12
1 7 3 10 4 5 1 4 9 10 11 12
5 10 6 5 10 8 6 4 13 14 15 16
7 3 8 7 6 1 5 3 13 14 16
5 2 2 7 3 8 5 3 13 14 16
2 9 9 4 10 9 9 4 13 14 15 16
9 2 10 7 4 5 5 4 17 18 19 20
8 9 9 6 7 6 8 3 17 19 20
10 3 8 4 10 3 7 4 17 18 19 20
5 9 6 3 7 4 6 4 17 18 19 20
1 2 5 10 9 8 7 3 21 22 23
7 2 10 8 9 6 1 4 21 22 23 24
2 9 5 8 2 5 6 2 21 23
6 2 9 5 5 4 7 3 21 22 23
3 1 7 5 8 5 4 3 25 26 27
6 2 1 5 1 2 3 4 25 26 27 28
7 4 10 2 6 10 7 4 25 26 27 28
2 8 8 10 3 2 1 4 25 26 27 28
6 3 1 5 9 7 8 1 30
2 9 4 1 3 7 1 2 29 30
1 2 5 7 1 9 1 4 29 30 31 32
6 4 6 9 7 6 3 2 30 31
8 4 7 9 2 6 8 3 33 35 36
7 4 5 7 6 8 4 3 33 35 36
2 9 4 4 6 5 8 4 33 34 35 36
8 10 4 8 5 1 2 3 33 35 36
4 9 7 6 2 10 5 4 37 38 39 40
7 1 3 6 4 9 3 4 37 38 39 40
9 9 4 1 2 9 5 3 37 38 40
1 10 3 7 7 10 3 4 37 38 39 40
4 6 6 7 3 2 8 4 41 42 43 44
4 3 1 1 2 3 10 4 41 42 43 44
3 9 7 7 5 7 7 4 41 42 43 44
3 9 3 4 4 10 6 4 41 42 43 44
4 2 5 1 7 9 10 3 45 46 48
2 4 5 10 4 8 1 3 45 46 47
5 4 5 9 10 6 3 3 45 46 47
7 9 9 10 3 7 8 3 45 46 47
4 10 5 3 7 7 8 2 49 50
9 2 9 1 6 1 2 1 50
9 3 1 5 8 7 1 2 49 50
1 3 10 7 6 5 1 1 50
7 5 8 5 4 9 2 1 51
7 5 7 9 3 8 3 1 51
0 0 0 0 0 0 0 0
